-423.0 2.0 3.0 7.0 10.0 3.0 6.0 4.0 5.0 2.0 9.0 0.0 0.0 8.0 1.0 9.0 1.0 5.0 7.0 6.0 0.0 1.0 4.0 10.0 3.0 2.0 2.0 6.0 2.0 7.0 3.0 8.0 0.0 7.0 7.0 3.0 6.0 1.0 4.0 1.0 7.0 10.0 10.0 8.0 8.0 7.0 3.0 1.0 7.0 9.0 9.0 2.0 9.0 6.0 4.0 6.0 2.0 7.0 1.0 9.0 4.0 9.0 8.0 7.0 3.0 5.0 9.0 6.0 5.0 5.0 8.0 7.0 1.0 1.0 1.0 0.0 10.0 0.0 8.0 10.0 7.0 8.0 7.0 4.0 0.0 0.0 
2.0 -414.0 6.0 10.0 2.0 1.0 8.0 9.0 8.0 4.0 7.0 10.0 1.0 4.0 5.0 5.0 2.0 3.0 5.0 8.0 8.0 5.0 9.0 8.0 8.0 10.0 3.0 2.0 7.0 1.0 5.0 5.0 2.0 8.0 7.0 6.0 2.0 3.0 10.0 5.0 1.0 6.0 7.0 5.0 1.0 2.0 5.0 6.0 8.0 5.0 10.0 7.0 4.0 6.0 8.0 2.0 7.0 6.0 2.0 4.0 4.0 3.0 5.0 5.0 3.0 2.0 3.0 9.0 5.0 4.0 7.0 10.0 7.0 7.0 3.0 3.0 4.0 6.0 8.0 0.0 0.0 0.0 0.0 0.0 0.0 0.0 
3.0 6.0 -484.0 4.0 7.0 5.0 5.0 9.0 6.0 0.0 4.0 3.0 4.0 7.0 4.0 10.0 5.0 0.0 10.0 0.0 0.0 9.0 7.0 10.0 5.0 3.0 4.0 7.0 10.0 4.0 10.0 5.0 9.0 4.0 9.0 8.0 9.0 6.0 7.0 1.0 7.0 10.0 0.0 9.0 8.0 5.0 5.0 1.0 6.0 8.0 7.0 2.0 4.0 7.0 3.0 10.0 4.0 8.0 3.0 4.0 4.0 5.0 10.0 3.0 9.0 3.0 8.0 7.0 7.0 3.0 4.0 4.0 9.0 0.0 10.0 9.0 3.0 9.0 2.0 1.0 10.0 6.0 7.0 4.0 7.0 10.0 
7.0 10.0 4.0 -387.0 3.0 2.0 7.0 5.0 5.0 8.0 4.0 10.0 6.0 0.0 6.0 2.0 1.0 8.0 2.0 0.0 8.0 5.0 6.0 6.0 3.0 8.0 9.0 1.0 2.0 5.0 10.0 5.0 2.0 8.0 1.0 1.0 2.0 5.0 4.0 2.0 10.0 1.0 2.0 4.0 8.0 4.0 1.0 3.0 0.0 6.0 1.0 7.0 5.0 2.0 6.0 7.0 8.0 10.0 0.0 10.0 4.0 3.0 1.0 6.0 5.0 2.0 2.0 0.0 2.0 9.0 6.0 9.0 10.0 1.0 6.0 8.0 0.0 1.0 9.0 7.0 5.0 6.0 0.0 3.0 0.0 4.0 
10.0 2.0 7.0 3.0 -399.0 2.0 0.0 0.0 7.0 6.0 9.0 1.0 7.0 4.0 10.0 9.0 3.0 9.0 4.0 4.0 9.0 4.0 5.0 8.0 0.0 7.0 6.0 7.0 10.0 1.0 7.0 4.0 1.0 1.0 9.0 5.0 1.0 3.0 1.0 1.0 7.0 1.0 9.0 4.0 3.0 8.0 0.0 10.0 8.0 1.0 7.0 6.0 3.0 8.0 1.0 4.0 10.0 4.0 2.0 3.0 4.0 2.0 0.0 0.0 5.0 10.0 0.0 4.0 7.0 9.0 6.0 7.0 6.0 3.0 5.0 3.0 0.0 3.0 8.0 3.0 0.0 3.0 7.0 6.0 8.0 4.0 
3.0 1.0 5.0 2.0 2.0 -421.0 3.0 1.0 6.0 8.0 9.0 3.0 9.0 0.0 1.0 0.0 0.0 5.0 2.0 0.0 3.0 9.0 7.0 8.0 3.0 5.0 8.0 6.0 1.0 9.0 1.0 9.0 4.0 10.0 3.0 1.0 6.0 6.0 6.0 4.0 5.0 4.0 5.0 2.0 6.0 5.0 5.0 6.0 10.0 6.0 9.0 5.0 7.0 0.0 4.0 10.0 4.0 5.0 0.0 10.0 9.0 6.0 2.0 6.0 9.0 0.0 8.0 6.0 7.0 10.0 7.0 4.0 9.0 8.0 2.0 6.0 8.0 2.0 8.0 1.0 6.0 6.0 0.0 0.0 9.0 5.0 
6.0 8.0 5.0 7.0 0.0 3.0 -399.0 4.0 3.0 3.0 5.0 1.0 3.0 4.0 3.0 4.0 4.0 2.0 4.0 4.0 9.0 1.0 2.0 5.0 7.0 10.0 2.0 4.0 1.0 6.0 10.0 0.0 3.0 9.0 7.0 0.0 2.0 6.0 5.0 5.0 4.0 5.0 4.0 6.0 3.0 7.0 6.0 10.0 2.0 3.0 5.0 7.0 4.0 5.0 7.0 9.0 3.0 4.0 6.0 2.0 1.0 0.0 10.0 5.0 7.0 1.0 8.0 1.0 1.0 4.0 4.0 5.0 10.0 10.0 2.0 4.0 2.0 7.0 10.0 1.0 5.0 10.0 2.0 6.0 6.0 8.0 
4.0 9.0 9.0 5.0 0.0 1.0 4.0 -455.0 9.0 7.0 3.0 7.0 10.0 9.0 1.0 6.0 7.0 7.0 4.0 3.0 5.0 0.0 4.0 8.0 6.0 5.0 2.0 8.0 4.0 8.0 6.0 4.0 9.0 9.0 8.0 0.0 5.0 5.0 8.0 0.0 7.0 2.0 2.0 8.0 9.0 7.0 2.0 4.0 5.0 1.0 10.0 10.0 2.0 3.0 4.0 3.0 3.0 6.0 10.0 8.0 0.0 0.0 8.0 9.0 6.0 1.0 0.0 7.0 6.0 7.0 9.0 2.0 9.0 5.0 7.0 4.0 2.0 4.0 2.0 3.0 7.0 8.0 10.0 8.0 10.0 6.0 
5.0 8.0 6.0 5.0 7.0 6.0 3.0 9.0 -414.0 5.0 6.0 8.0 3.0 5.0 7.0 4.0 0.0 6.0 6.0 8.0 9.0 5.0 10.0 0.0 5.0 5.0 2.0 0.0 1.0 2.0 6.0 0.0 5.0 10.0 9.0 1.0 6.0 9.0 5.0 6.0 8.0 2.0 2.0 8.0 7.0 6.0 0.0 2.0 1.0 9.0 8.0 9.0 0.0 5.0 2.0 7.0 9.0 3.0 0.0 8.0 7.0 8.0 3.0 5.0 5.0 2.0 9.0 4.0 6.0 3.0 5.0 1.0 8.0 3.0 1.0 4.0 6.0 0.0 4.0 6.0 0.0 8.0 8.0 1.0 5.0 3.0 
2.0 4.0 0.0 8.0 6.0 8.0 3.0 7.0 5.0 -391.0 8.0 4.0 8.0 7.0 6.0 8.0 2.0 9.0 0.0 5.0 0.0 10.0 4.0 8.0 8.0 3.0 0.0 3.0 3.0 4.0 2.0 7.0 10.0 4.0 10.0 10.0 10.0 7.0 0.0 8.0 4.0 8.0 1.0 1.0 10.0 2.0 1.0 7.0 0.0 10.0 7.0 3.0 2.0 6.0 6.0 0.0 4.0 8.0 3.0 6.0 2.0 9.0 5.0 3.0 0.0 0.0 9.0 1.0 0.0 4.0 2.0 4.0 0.0 0.0 9.0 0.0 5.0 5.0 2.0 6.0 2.0 7.0 1.0 5.0 3.0 7.0 
9.0 7.0 4.0 4.0 9.0 9.0 5.0 3.0 6.0 8.0 -434.0 8.0 5.0 2.0 3.0 4.0 1.0 10.0 1.0 4.0 9.0 1.0 2.0 6.0 9.0 4.0 7.0 2.0 10.0 3.0 9.0 8.0 7.0 3.0 4.0 0.0 9.0 8.0 9.0 8.0 9.0 5.0 5.0 7.0 6.0 2.0 8.0 7.0 0.0 4.0 6.0 0.0 3.0 2.0 5.0 10.0 4.0 0.0 5.0 10.0 7.0 9.0 0.0 9.0 2.0 6.0 0.0 4.0 2.0 0.0 8.0 2.0 5.0 0.0 0.0 7.0 0.0 10.0 6.0 2.0 4.0 1.0 5.0 8.0 10.0 9.0 
0.0 10.0 3.0 10.0 1.0 3.0 1.0 7.0 8.0 4.0 8.0 -410.0 5.0 8.0 0.0 0.0 4.0 3.0 10.0 0.0 7.0 6.0 8.0 0.0 7.0 6.0 7.0 0.0 8.0 5.0 2.0 8.0 3.0 8.0 1.0 7.0 8.0 9.0 8.0 0.0 10.0 4.0 7.0 1.0 0.0 5.0 8.0 0.0 5.0 2.0 3.0 5.0 4.0 0.0 0.0 7.0 9.0 3.0 2.0 3.0 2.0 9.0 8.0 10.0 3.0 0.0 1.0 1.0 9.0 10.0 3.0 0.0 6.0 1.0 10.0 7.0 0.0 6.0 9.0 7.0 7.0 7.0 10.0 6.0 7.0 0.0 
0.0 1.0 4.0 6.0 7.0 9.0 3.0 10.0 3.0 8.0 5.0 5.0 -439.0 7.0 3.0 10.0 10.0 5.0 0.0 5.0 6.0 5.0 4.0 7.0 4.0 3.0 7.0 7.0 8.0 4.0 0.0 5.0 5.0 0.0 9.0 10.0 7.0 8.0 1.0 0.0 9.0 5.0 8.0 3.0 4.0 3.0 9.0 4.0 7.0 5.0 5.0 8.0 4.0 2.0 0.0 1.0 5.0 7.0 6.0 1.0 4.0 10.0 0.0 8.0 9.0 5.0 3.0 10.0 0.0 9.0 0.0 4.0 1.0 3.0 7.0 9.0 10.0 6.0 5.0 8.0 2.0 10.0 0.0 8.0 5.0 6.0 
8.0 4.0 7.0 0.0 4.0 0.0 4.0 9.0 5.0 7.0 2.0 8.0 7.0 -460.0 10.0 5.0 2.0 3.0 5.0 7.0 1.0 8.0 8.0 9.0 2.0 9.0 6.0 1.0 1.0 9.0 10.0 7.0 2.0 5.0 7.0 4.0 6.0 10.0 9.0 8.0 5.0 8.0 3.0 3.0 5.0 0.0 5.0 1.0 3.0 6.0 2.0 7.0 2.0 1.0 3.0 2.0 3.0 8.0 5.0 8.0 10.0 10.0 6.0 5.0 8.0 1.0 10.0 9.0 5.0 1.0 7.0 10.0 3.0 8.0 3.0 10.0 2.0 9.0 8.0 6.0 10.0 6.0 3.0 0.0 6.0 5.0 
1.0 5.0 4.0 6.0 10.0 1.0 3.0 1.0 7.0 6.0 3.0 0.0 3.0 10.0 -414.0 9.0 6.0 10.0 8.0 10.0 7.0 0.0 7.0 7.0 3.0 3.0 5.0 1.0 5.0 2.0 9.0 8.0 3.0 4.0 5.0 2.0 8.0 3.0 0.0 8.0 5.0 5.0 3.0 8.0 10.0 7.0 10.0 8.0 8.0 1.0 0.0 0.0 0.0 8.0 0.0 4.0 4.0 6.0 5.0 2.0 10.0 4.0 1.0 0.0 3.0 4.0 3.0 0.0 10.0 6.0 10.0 9.0 1.0 6.0 10.0 0.0 5.0 5.0 6.0 6.0 4.0 4.0 2.0 4.0 9.0 5.0 
9.0 5.0 10.0 2.0 9.0 0.0 4.0 6.0 4.0 8.0 4.0 0.0 10.0 5.0 9.0 -463.0 9.0 1.0 6.0 2.0 2.0 7.0 6.0 10.0 10.0 5.0 4.0 6.0 10.0 0.0 9.0 6.0 4.0 4.0 5.0 3.0 0.0 6.0 7.0 4.0 3.0 2.0 4.0 6.0 0.0 2.0 0.0 10.0 6.0 3.0 4.0 10.0 0.0 7.0 10.0 8.0 9.0 3.0 6.0 5.0 9.0 3.0 1.0 6.0 2.0 9.0 2.0 8.0 9.0 8.0 9.0 7.0 10.0 3.0 7.0 7.0 4.0 9.0 4.0 7.0 4.0 2.0 3.0 9.0 4.0 8.0 
1.0 2.0 5.0 1.0 3.0 0.0 4.0 7.0 0.0 2.0 1.0 4.0 10.0 2.0 6.0 9.0 -362.0 3.0 1.0 4.0 2.0 0.0 2.0 2.0 9.0 2.0 4.0 5.0 2.0 4.0 0.0 4.0 0.0 7.0 5.0 0.0 6.0 1.0 1.0 6.0 7.0 0.0 3.0 3.0 6.0 3.0 7.0 6.0 1.0 2.0 4.0 4.0 5.0 5.0 0.0 5.0 9.0 7.0 2.0 0.0 6.0 7.0 10.0 2.0 5.0 2.0 10.0 7.0 6.0 1.0 7.0 7.0 7.0 3.0 6.0 1.0 10.0 7.0 5.0 9.0 6.0 4.0 5.0 10.0 6.0 7.0 
5.0 3.0 0.0 8.0 9.0 5.0 2.0 7.0 6.0 9.0 10.0 3.0 5.0 3.0 10.0 1.0 3.0 -411.0 0.0 6.0 0.0 5.0 8.0 9.0 3.0 1.0 0.0 9.0 3.0 2.0 7.0 7.0 7.0 0.0 0.0 3.0 5.0 10.0 8.0 10.0 6.0 7.0 1.0 5.0 0.0 6.0 3.0 1.0 3.0 10.0 4.0 4.0 3.0 9.0 5.0 9.0 0.0 7.0 5.0 6.0 2.0 0.0 1.0 1.0 4.0 0.0 9.0 8.0 8.0 8.0 7.0 2.0 10.0 5.0 7.0 7.0 8.0 0.0 7.0 6.0 8.0 0.0 7.0 0.0 4.0 6.0 
7.0 5.0 10.0 2.0 4.0 2.0 4.0 4.0 6.0 0.0 1.0 10.0 0.0 5.0 8.0 6.0 1.0 0.0 -375.0 0.0 6.0 0.0 0.0 1.0 9.0 1.0 8.0 4.0 8.0 4.0 7.0 4.0 5.0 5.0 0.0 6.0 5.0 2.0 0.0 8.0 7.0 0.0 1.0 1.0 3.0 3.0 5.0 0.0 7.0 4.0 6.0 2.0 4.0 7.0 9.0 5.0 2.0 8.0 0.0 7.0 2.0 9.0 4.0 8.0 6.0 5.0 8.0 5.0 10.0 10.0 6.0 6.0 5.0 0.0 2.0 2.0 6.0 0.0 0.0 0.0 9.0 6.0 10.0 8.0 1.0 8.0 
6.0 8.0 0.0 0.0 4.0 0.0 4.0 3.0 8.0 5.0 4.0 0.0 5.0 7.0 10.0 2.0 4.0 6.0 0.0 -413.0 4.0 9.0 3.0 0.0 0.0 3.0 10.0 9.0 6.0 3.0 9.0 3.0 5.0 4.0 6.0 0.0 9.0 10.0 6.0 1.0 4.0 2.0 10.0 1.0 8.0 8.0 9.0 5.0 4.0 8.0 4.0 4.0 7.0 9.0 5.0 6.0 2.0 5.0 4.0 0.0 4.0 9.0 5.0 5.0 8.0 4.0 1.0 3.0 10.0 1.0 2.0 5.0 9.0 5.0 2.0 1.0 10.0 9.0 3.0 0.0 7.0 4.0 10.0 10.0 1.0 4.0 
0.0 8.0 0.0 8.0 9.0 3.0 9.0 5.0 9.0 0.0 9.0 7.0 6.0 1.0 7.0 2.0 2.0 0.0 6.0 4.0 -410.0 3.0 8.0 5.0 2.0 8.0 9.0 1.0 3.0 4.0 8.0 4.0 0.0 5.0 8.0 7.0 4.0 9.0 2.0 0.0 6.0 2.0 2.0 6.0 1.0 9.0 3.0 8.0 8.0 4.0 10.0 3.0 10.0 2.0 5.0 5.0 0.0 0.0 8.0 8.0 1.0 9.0 10.0 4.0 10.0 4.0 10.0 9.0 9.0 3.0 1.0 5.0 0.0 9.0 3.0 1.0 1.0 4.0 0.0 2.0 6.0 5.0 8.0 10.0 1.0 0.0 
1.0 5.0 9.0 5.0 4.0 9.0 1.0 0.0 5.0 10.0 1.0 6.0 5.0 8.0 0.0 7.0 0.0 5.0 0.0 9.0 3.0 -397.0 6.0 9.0 5.0 6.0 0.0 2.0 10.0 6.0 6.0 2.0 5.0 2.0 7.0 10.0 5.0 7.0 7.0 1.0 0.0 0.0 0.0 7.0 9.0 5.0 10.0 10.0 4.0 0.0 3.0 9.0 9.0 9.0 0.0 6.0 7.0 1.0 1.0 1.0 7.0 2.0 6.0 8.0 9.0 1.0 5.0 0.0 3.0 7.0 10.0 7.0 0.0 1.0 5.0 5.0 7.0 4.0 3.0 1.0 4.0 0.0 2.0 4.0 6.0 10.0 
4.0 9.0 7.0 6.0 5.0 7.0 2.0 4.0 10.0 4.0 2.0 8.0 4.0 8.0 7.0 6.0 2.0 8.0 0.0 3.0 8.0 6.0 -375.0 5.0 9.0 4.0 9.0 8.0 0.0 0.0 3.0 1.0 5.0 4.0 0.0 4.0 2.0 5.0 5.0 7.0 3.0 1.0 9.0 1.0 1.0 1.0 10.0 0.0 5.0 3.0 3.0 4.0 2.0 10.0 4.0 3.0 0.0 10.0 5.0 0.0 9.0 3.0 7.0 4.0 6.0 0.0 10.0 5.0 2.0 7.0 9.0 7.0 0.0 1.0 1.0 0.0 1.0 5.0 3.0 4.0 3.0 4.0 1.0 5.0 4.0 8.0 
10.0 8.0 10.0 6.0 8.0 8.0 5.0 8.0 0.0 8.0 6.0 0.0 7.0 9.0 7.0 10.0 2.0 9.0 1.0 0.0 5.0 9.0 5.0 -449.0 4.0 5.0 6.0 7.0 5.0 5.0 0.0 1.0 0.0 5.0 10.0 4.0 7.0 8.0 5.0 5.0 10.0 10.0 8.0 2.0 9.0 3.0 1.0 3.0 7.0 2.0 10.0 4.0 4.0 7.0 3.0 3.0 10.0 5.0 3.0 8.0 9.0 6.0 1.0 1.0 0.0 9.0 4.0 1.0 3.0 3.0 8.0 1.0 1.0 7.0 2.0 4.0 8.0 8.0 7.0 0.0 8.0 9.0 0.0 3.0 10.0 6.0 
3.0 8.0 5.0 3.0 0.0 3.0 7.0 6.0 5.0 8.0 9.0 7.0 4.0 2.0 3.0 10.0 9.0 3.0 9.0 0.0 2.0 5.0 9.0 4.0 -430.0 10.0 0.0 6.0 10.0 9.0 6.0 2.0 8.0 4.0 4.0 6.0 9.0 1.0 0.0 2.0 10.0 0.0 1.0 7.0 5.0 9.0 6.0 8.0 0.0 4.0 9.0 10.0 7.0 2.0 7.0 4.0 2.0 4.0 1.0 2.0 9.0 2.0 7.0 0.0 9.0 3.0 2.0 10.0 9.0 3.0 4.0 2.0 2.0 7.0 5.0 10.0 4.0 4.0 4.0 6.0 6.0 0.0 8.0 7.0 1.0 7.0 
2.0 10.0 3.0 8.0 7.0 5.0 10.0 5.0 5.0 3.0 4.0 6.0 3.0 9.0 3.0 5.0 2.0 1.0 1.0 3.0 8.0 6.0 4.0 5.0 10.0 -414.0 2.0 2.0 3.0 0.0 0.0 3.0 5.0 10.0 0.0 2.0 1.0 10.0 2.0 6.0 4.0 10.0 6.0 1.0 8.0 6.0 0.0 5.0 5.0 0.0 8.0 8.0 9.0 2.0 5.0 4.0 8.0 5.0 5.0 10.0 8.0 4.0 2.0 6.0 1.0 9.0 2.0 10.0 0.0 9.0 1.0 8.0 8.0 1.0 3.0 5.0 7.0 10.0 5.0 10.0 3.0 6.0 3.0 7.0 3.0 0.0 
2.0 3.0 4.0 9.0 6.0 8.0 2.0 2.0 2.0 0.0 7.0 7.0 7.0 6.0 5.0 4.0 4.0 0.0 8.0 10.0 9.0 0.0 9.0 6.0 0.0 2.0 -424.0 6.0 9.0 2.0 2.0 1.0 4.0 6.0 6.0 10.0 7.0 10.0 8.0 7.0 6.0 8.0 0.0 7.0 0.0 8.0 8.0 8.0 2.0 0.0 5.0 2.0 10.0 1.0 3.0 9.0 6.0 9.0 5.0 7.0 0.0 0.0 9.0 9.0 7.0 1.0 0.0 3.0 1.0 9.0 1.0 4.0 9.0 1.0 5.0 8.0 4.0 3.0 1.0 5.0 5.0 7.0 3.0 10.0 5.0 10.0 
6.0 2.0 7.0 1.0 7.0 6.0 4.0 8.0 0.0 3.0 2.0 0.0 7.0 1.0 1.0 6.0 5.0 9.0 4.0 9.0 1.0 2.0 8.0 7.0 6.0 2.0 6.0 -418.0 5.0 10.0 0.0 9.0 6.0 4.0 10.0 4.0 7.0 0.0 1.0 6.0 1.0 8.0 3.0 3.0 10.0 5.0 4.0 0.0 9.0 5.0 4.0 9.0 9.0 4.0 1.0 8.0 4.0 6.0 8.0 6.0 6.0 0.0 7.0 9.0 6.0 1.0 10.0 2.0 6.0 0.0 2.0 10.0 0.0 8.0 5.0 4.0 5.0 5.0 8.0 7.0 7.0 6.0 3.0 2.0 5.0 5.0 
2.0 7.0 10.0 2.0 10.0 1.0 1.0 4.0 1.0 3.0 10.0 8.0 8.0 1.0 5.0 10.0 2.0 3.0 8.0 6.0 3.0 10.0 0.0 5.0 10.0 3.0 9.0 5.0 -461.0 3.0 7.0 7.0 0.0 8.0 3.0 2.0 3.0 4.0 3.0 2.0 7.0 9.0 10.0 3.0 5.0 1.0 7.0 0.0 1.0 1.0 10.0 4.0 10.0 9.0 10.0 7.0 10.0 9.0 9.0 8.0 7.0 9.0 8.0 10.0 5.0 5.0 4.0 5.0 4.0 7.0 6.0 0.0 1.0 7.0 8.0 7.0 0.0 6.0 5.0 1.0 7.0 3.0 8.0 6.0 8.0 5.0 
7.0 1.0 4.0 5.0 1.0 9.0 6.0 8.0 2.0 4.0 3.0 5.0 4.0 9.0 2.0 0.0 4.0 2.0 4.0 3.0 4.0 6.0 0.0 5.0 9.0 0.0 2.0 10.0 3.0 -419.0 7.0 9.0 7.0 4.0 8.0 5.0 1.0 1.0 2.0 2.0 8.0 3.0 5.0 8.0 8.0 8.0 5.0 1.0 1.0 3.0 2.0 7.0 8.0 4.0 10.0 6.0 7.0 10.0 5.0 6.0 7.0 6.0 10.0 8.0 3.0 10.0 4.0 6.0 3.0 6.0 1.0 6.0 10.0 3.0 0.0 9.0 3.0 0.0 2.0 6.0 7.0 10.0 7.0 0.0 9.0 0.0 
3.0 5.0 10.0 10.0 7.0 1.0 10.0 6.0 6.0 2.0 9.0 2.0 0.0 10.0 9.0 9.0 0.0 7.0 7.0 9.0 8.0 6.0 3.0 0.0 6.0 0.0 2.0 0.0 7.0 7.0 -407.0 10.0 2.0 7.0 4.0 9.0 0.0 8.0 3.0 4.0 1.0 3.0 5.0 5.0 10.0 6.0 6.0 7.0 4.0 2.0 6.0 4.0 1.0 0.0 1.0 1.0 6.0 2.0 2.0 8.0 5.0 4.0 0.0 1.0 9.0 6.0 10.0 0.0 8.0 9.0 1.0 8.0 1.0 4.0 0.0 5.0 1.0 5.0 7.0 0.0 5.0 7.0 5.0 1.0 10.0 7.0 
8.0 5.0 5.0 5.0 4.0 9.0 0.0 4.0 0.0 7.0 8.0 8.0 5.0 7.0 8.0 6.0 4.0 7.0 4.0 3.0 4.0 2.0 1.0 1.0 2.0 3.0 1.0 9.0 7.0 9.0 10.0 -400.0 4.0 1.0 10.0 9.0 7.0 4.0 4.0 4.0 8.0 1.0 2.0 6.0 6.0 0.0 1.0 8.0 0.0 0.0 7.0 2.0 2.0 9.0 10.0 5.0 4.0 4.0 4.0 1.0 3.0 1.0 6.0 5.0 5.0 1.0 0.0 6.0 10.0 1.0 6.0 8.0 5.0 6.0 10.0 3.0 8.0 6.0 1.0 9.0 0.0 3.0 10.0 3.0 1.0 4.0 
0.0 2.0 9.0 2.0 1.0 4.0 3.0 9.0 5.0 10.0 7.0 3.0 5.0 2.0 3.0 4.0 0.0 7.0 5.0 5.0 0.0 5.0 5.0 0.0 8.0 5.0 4.0 6.0 0.0 7.0 2.0 4.0 -418.0 0.0 3.0 6.0 5.0 0.0 6.0 2.0 9.0 7.0 3.0 10.0 2.0 4.0 3.0 1.0 9.0 9.0 5.0 9.0 7.0 5.0 3.0 10.0 0.0 10.0 5.0 9.0 9.0 4.0 3.0 1.0 7.0 5.0 5.0 10.0 8.0 1.0 3.0 5.0 8.0 6.0 10.0 6.0 4.0 1.0 1.0 3.0 10.0 3.0 10.0 5.0 9.0 7.0 
7.0 8.0 4.0 8.0 1.0 10.0 9.0 9.0 10.0 4.0 3.0 8.0 0.0 5.0 4.0 4.0 7.0 0.0 5.0 4.0 5.0 2.0 4.0 5.0 4.0 10.0 6.0 4.0 8.0 4.0 7.0 1.0 0.0 -425.0 9.0 3.0 1.0 1.0 10.0 9.0 8.0 0.0 4.0 1.0 5.0 3.0 5.0 5.0 1.0 3.0 4.0 7.0 3.0 4.0 9.0 7.0 4.0 7.0 5.0 0.0 8.0 9.0 9.0 8.0 0.0 0.0 10.0 8.0 2.0 5.0 5.0 5.0 3.0 7.0 10.0 2.0 6.0 10.0 0.0 0.0 3.0 5.0 10.0 2.0 1.0 9.0 
7.0 7.0 9.0 1.0 9.0 3.0 7.0 8.0 9.0 10.0 4.0 1.0 9.0 7.0 5.0 5.0 5.0 0.0 0.0 6.0 8.0 7.0 0.0 10.0 4.0 0.0 6.0 10.0 3.0 8.0 4.0 10.0 3.0 9.0 -479.0 6.0 8.0 2.0 10.0 4.0 0.0 4.0 10.0 6.0 4.0 0.0 8.0 0.0 10.0 10.0 10.0 4.0 10.0 9.0 4.0 0.0 8.0 4.0 0.0 6.0 5.0 6.0 0.0 10.0 8.0 10.0 8.0 7.0 8.0 2.0 9.0 4.0 0.0 9.0 8.0 9.0 4.0 10.0 9.0 4.0 1.0 6.0 0.0 2.0 6.0 3.0 
3.0 6.0 8.0 1.0 5.0 1.0 0.0 0.0 1.0 10.0 0.0 7.0 10.0 4.0 2.0 3.0 0.0 3.0 6.0 0.0 7.0 10.0 4.0 4.0 6.0 2.0 10.0 4.0 2.0 5.0 9.0 9.0 6.0 3.0 6.0 -381.0 7.0 2.0 8.0 3.0 7.0 3.0 0.0 5.0 5.0 0.0 5.0 6.0 2.0 2.0 2.0 6.0 1.0 8.0 5.0 0.0 8.0 8.0 0.0 10.0 2.0 0.0 2.0 1.0 3.0 5.0 10.0 7.0 10.0 1.0 4.0 0.0 7.0 6.0 8.0 9.0 3.0 2.0 3.0 1.0 2.0 10.0 6.0 4.0 9.0 6.0 
6.0 2.0 9.0 2.0 1.0 6.0 2.0 5.0 6.0 10.0 9.0 8.0 7.0 6.0 8.0 0.0 6.0 5.0 5.0 9.0 4.0 5.0 2.0 7.0 9.0 1.0 7.0 7.0 3.0 1.0 0.0 7.0 5.0 1.0 8.0 7.0 -449.0 2.0 7.0 1.0 4.0 2.0 8.0 8.0 9.0 5.0 7.0 8.0 10.0 7.0 8.0 6.0 1.0 10.0 8.0 9.0 4.0 10.0 3.0 1.0 1.0 1.0 6.0 4.0 7.0 6.0 7.0 9.0 9.0 9.0 1.0 9.0 1.0 6.0 2.0 3.0 7.0 0.0 1.0 10.0 4.0 6.0 1.0 8.0 2.0 5.0 
1.0 3.0 6.0 5.0 3.0 6.0 6.0 5.0 9.0 7.0 8.0 9.0 8.0 10.0 3.0 6.0 1.0 10.0 2.0 10.0 9.0 7.0 5.0 8.0 1.0 10.0 10.0 0.0 4.0 1.0 8.0 4.0 0.0 1.0 2.0 2.0 2.0 -434.0 4.0 1.0 7.0 10.0 8.0 3.0 10.0 0.0 4.0 10.0 10.0 9.0 3.0 2.0 5.0 3.0 2.0 0.0 1.0 1.0 10.0 6.0 10.0 5.0 7.0 10.0 5.0 5.0 1.0 5.0 1.0 0.0 1.0 1.0 9.0 5.0 10.0 7.0 5.0 10.0 3.0 3.0 5.0 8.0 1.0 1.0 9.0 6.0 
4.0 10.0 7.0 4.0 1.0 6.0 5.0 8.0 5.0 0.0 9.0 8.0 1.0 9.0 0.0 7.0 1.0 8.0 0.0 6.0 2.0 7.0 5.0 5.0 0.0 2.0 8.0 1.0 3.0 2.0 3.0 4.0 6.0 10.0 10.0 8.0 7.0 4.0 -440.0 0.0 8.0 7.0 7.0 2.0 6.0 9.0 6.0 2.0 7.0 7.0 0.0 1.0 6.0 8.0 9.0 3.0 2.0 6.0 5.0 8.0 9.0 10.0 10.0 1.0 4.0 2.0 2.0 7.0 8.0 4.0 8.0 9.0 9.0 0.0 3.0 8.0 6.0 2.0 3.0 4.0 8.0 4.0 9.0 8.0 6.0 1.0 
1.0 5.0 1.0 2.0 1.0 4.0 5.0 0.0 6.0 8.0 8.0 0.0 0.0 8.0 8.0 4.0 6.0 10.0 8.0 1.0 0.0 1.0 7.0 5.0 2.0 6.0 7.0 6.0 2.0 2.0 4.0 4.0 2.0 9.0 4.0 3.0 1.0 1.0 0.0 -374.0 3.0 9.0 7.0 3.0 3.0 2.0 0.0 0.0 8.0 10.0 7.0 9.0 9.0 5.0 1.0 3.0 7.0 3.0 1.0 10.0 0.0 7.0 3.0 2.0 7.0 1.0 7.0 5.0 5.0 10.0 4.0 9.0 8.0 10.0 1.0 8.0 2.0 1.0 1.0 10.0 10.0 2.0 0.0 0.0 9.0 0.0 
7.0 1.0 7.0 10.0 7.0 5.0 4.0 7.0 8.0 4.0 9.0 10.0 9.0 5.0 5.0 3.0 7.0 6.0 7.0 4.0 6.0 0.0 3.0 10.0 10.0 4.0 6.0 1.0 7.0 8.0 1.0 8.0 9.0 8.0 0.0 7.0 4.0 7.0 8.0 3.0 -472.0 7.0 2.0 0.0 6.0 6.0 3.0 8.0 7.0 1.0 8.0 7.0 10.0 9.0 10.0 4.0 3.0 1.0 7.0 10.0 0.0 5.0 4.0 2.0 5.0 0.0 7.0 1.0 10.0 5.0 3.0 5.0 9.0 4.0 6.0 10.0 3.0 7.0 3.0 9.0 4.0 9.0 9.0 6.0 0.0 2.0 
10.0 6.0 10.0 1.0 1.0 4.0 5.0 2.0 2.0 8.0 5.0 4.0 5.0 8.0 5.0 2.0 0.0 7.0 0.0 2.0 2.0 0.0 1.0 10.0 0.0 10.0 8.0 8.0 9.0 3.0 3.0 1.0 7.0 0.0 4.0 3.0 2.0 10.0 7.0 9.0 7.0 -400.0 6.0 8.0 2.0 8.0 3.0 8.0 5.0 9.0 8.0 2.0 9.0 8.0 6.0 1.0 1.0 6.0 0.0 7.0 8.0 4.0 7.0 5.0 0.0 3.0 4.0 4.0 9.0 2.0 4.0 4.0 10.0 10.0 0.0 0.0 9.0 4.0 1.0 3.0 9.0 0.0 2.0 6.0 4.0 0.0 
10.0 7.0 0.0 2.0 9.0 5.0 4.0 2.0 2.0 1.0 5.0 7.0 8.0 3.0 3.0 4.0 3.0 1.0 1.0 10.0 2.0 0.0 9.0 8.0 1.0 6.0 0.0 3.0 10.0 5.0 5.0 2.0 3.0 4.0 10.0 0.0 8.0 8.0 7.0 7.0 2.0 6.0 -362.0 4.0 7.0 2.0 6.0 1.0 1.0 3.0 1.0 0.0 4.0 8.0 2.0 4.0 6.0 1.0 6.0 10.0 6.0 9.0 3.0 3.0 7.0 5.0 6.0 3.0 6.0 9.0 3.0 6.0 2.0 2.0 2.0 3.0 8.0 0.0 2.0 2.0 5.0 1.0 7.0 1.0 1.0 1.0 
8.0 5.0 9.0 4.0 4.0 2.0 6.0 8.0 8.0 1.0 7.0 1.0 3.0 3.0 8.0 6.0 3.0 5.0 1.0 1.0 6.0 7.0 1.0 2.0 7.0 1.0 7.0 3.0 3.0 8.0 5.0 6.0 10.0 1.0 6.0 5.0 8.0 3.0 2.0 3.0 0.0 8.0 4.0 -435.0 7.0 9.0 5.0 10.0 6.0 9.0 3.0 7.0 9.0 2.0 6.0 9.0 4.0 6.0 7.0 8.0 0.0 7.0 4.0 5.0 10.0 6.0 5.0 9.0 3.0 1.0 7.0 3.0 9.0 6.0 8.0 0.0 9.0 0.0 7.0 9.0 6.0 2.0 1.0 3.0 3.0 6.0 
8.0 1.0 8.0 8.0 3.0 6.0 3.0 9.0 7.0 10.0 6.0 0.0 4.0 5.0 10.0 0.0 6.0 0.0 3.0 8.0 1.0 9.0 1.0 9.0 5.0 8.0 0.0 10.0 5.0 8.0 10.0 6.0 2.0 5.0 4.0 5.0 9.0 10.0 6.0 3.0 6.0 2.0 7.0 7.0 -445.0 10.0 2.0 7.0 9.0 3.0 2.0 5.0 10.0 10.0 3.0 7.0 6.0 10.0 3.0 0.0 9.0 7.0 9.0 1.0 7.0 7.0 7.0 0.0 0.0 3.0 5.0 2.0 10.0 1.0 0.0 10.0 5.0 1.0 1.0 5.0 9.0 3.0 0.0 10.0 2.0 1.0 
7.0 2.0 5.0 4.0 8.0 5.0 7.0 7.0 6.0 2.0 2.0 5.0 3.0 0.0 7.0 2.0 3.0 6.0 3.0 8.0 9.0 5.0 1.0 3.0 9.0 6.0 8.0 5.0 1.0 8.0 6.0 0.0 4.0 3.0 0.0 0.0 5.0 0.0 9.0 2.0 6.0 8.0 2.0 9.0 10.0 -408.0 7.0 1.0 4.0 4.0 4.0 10.0 4.0 3.0 1.0 1.0 1.0 4.0 10.0 1.0 6.0 6.0 6.0 7.0 0.0 3.0 5.0 5.0 4.0 7.0 10.0 2.0 6.0 1.0 9.0 6.0 10.0 7.0 6.0 3.0 7.0 3.0 0.0 10.0 7.0 6.0 
3.0 5.0 5.0 1.0 0.0 5.0 6.0 2.0 0.0 1.0 8.0 8.0 9.0 5.0 10.0 0.0 7.0 3.0 5.0 9.0 3.0 10.0 10.0 1.0 6.0 0.0 8.0 4.0 7.0 5.0 6.0 1.0 3.0 5.0 8.0 5.0 7.0 4.0 6.0 0.0 3.0 3.0 6.0 5.0 2.0 7.0 -452.0 1.0 5.0 1.0 10.0 7.0 10.0 6.0 7.0 7.0 10.0 6.0 0.0 10.0 9.0 9.0 9.0 9.0 6.0 5.0 2.0 7.0 5.0 9.0 9.0 8.0 5.0 1.0 5.0 6.0 10.0 10.0 1.0 0.0 0.0 2.0 3.0 6.0 10.0 9.0 
1.0 6.0 1.0 3.0 10.0 6.0 10.0 4.0 2.0 7.0 7.0 0.0 4.0 1.0 8.0 10.0 6.0 1.0 0.0 5.0 8.0 10.0 0.0 3.0 8.0 5.0 8.0 0.0 0.0 1.0 7.0 8.0 1.0 5.0 0.0 6.0 8.0 10.0 2.0 0.0 8.0 8.0 1.0 10.0 7.0 1.0 1.0 -427.0 4.0 0.0 3.0 9.0 5.0 6.0 10.0 6.0 10.0 2.0 2.0 8.0 4.0 1.0 6.0 7.0 4.0 3.0 9.0 8.0 7.0 8.0 6.0 2.0 2.0 5.0 3.0 7.0 7.0 4.0 0.0 6.0 9.0 10.0 10.0 6.0 3.0 7.0 
7.0 8.0 6.0 0.0 8.0 10.0 2.0 5.0 1.0 0.0 0.0 5.0 7.0 3.0 8.0 6.0 1.0 3.0 7.0 4.0 8.0 4.0 5.0 7.0 0.0 5.0 2.0 9.0 1.0 1.0 4.0 0.0 9.0 1.0 10.0 2.0 10.0 10.0 7.0 8.0 7.0 5.0 1.0 6.0 9.0 4.0 5.0 4.0 -406.0 10.0 0.0 5.0 2.0 2.0 9.0 10.0 0.0 5.0 1.0 8.0 7.0 3.0 10.0 8.0 7.0 0.0 6.0 0.0 0.0 4.0 3.0 4.0 8.0 4.0 4.0 7.0 4.0 7.0 0.0 1.0 10.0 9.0 0.0 5.0 0.0 8.0 
9.0 5.0 8.0 6.0 1.0 6.0 3.0 1.0 9.0 10.0 4.0 2.0 5.0 6.0 1.0 3.0 2.0 10.0 4.0 8.0 4.0 0.0 3.0 2.0 4.0 0.0 0.0 5.0 1.0 3.0 2.0 0.0 9.0 3.0 10.0 2.0 7.0 9.0 7.0 10.0 1.0 9.0 3.0 9.0 3.0 4.0 1.0 0.0 10.0 -392.0 9.0 9.0 4.0 9.0 1.0 9.0 3.0 6.0 4.0 0.0 0.0 8.0 2.0 6.0 2.0 7.0 4.0 8.0 7.0 6.0 3.0 8.0 0.0 6.0 1.0 1.0 2.0 0.0 6.0 9.0 1.0 2.0 8.0 5.0 8.0 4.0 
9.0 10.0 7.0 1.0 7.0 9.0 5.0 10.0 8.0 7.0 6.0 3.0 5.0 2.0 0.0 4.0 4.0 4.0 6.0 4.0 10.0 3.0 3.0 10.0 9.0 8.0 5.0 4.0 10.0 2.0 6.0 7.0 5.0 4.0 10.0 2.0 8.0 3.0 0.0 7.0 8.0 8.0 1.0 3.0 2.0 4.0 10.0 3.0 0.0 9.0 -448.0 0.0 8.0 6.0 0.0 10.0 2.0 2.0 7.0 9.0 6.0 2.0 5.0 8.0 5.0 1.0 4.0 5.0 10.0 5.0 7.0 4.0 6.0 2.0 3.0 10.0 1.0 5.0 9.0 0.0 9.0 3.0 0.0 8.0 6.0 5.0 
2.0 7.0 2.0 7.0 6.0 5.0 7.0 10.0 9.0 3.0 0.0 5.0 8.0 7.0 0.0 10.0 4.0 4.0 2.0 4.0 3.0 9.0 4.0 4.0 10.0 8.0 2.0 9.0 4.0 7.0 4.0 2.0 9.0 7.0 4.0 6.0 6.0 2.0 1.0 9.0 7.0 2.0 0.0 7.0 5.0 10.0 7.0 9.0 5.0 9.0 0.0 -448.0 0.0 9.0 8.0 1.0 1.0 8.0 5.0 6.0 8.0 7.0 9.0 3.0 9.0 5.0 5.0 8.0 2.0 9.0 2.0 1.0 2.0 6.0 2.0 7.0 2.0 9.0 7.0 7.0 0.0 3.0 7.0 6.0 2.0 9.0 
9.0 4.0 4.0 5.0 3.0 7.0 4.0 2.0 0.0 2.0 3.0 4.0 4.0 2.0 0.0 0.0 5.0 3.0 4.0 7.0 10.0 9.0 2.0 4.0 7.0 9.0 10.0 9.0 10.0 8.0 1.0 2.0 7.0 3.0 10.0 1.0 1.0 5.0 6.0 9.0 10.0 9.0 4.0 9.0 10.0 4.0 10.0 5.0 2.0 4.0 8.0 0.0 -420.0 0.0 10.0 6.0 8.0 2.0 1.0 9.0 10.0 9.0 2.0 2.0 10.0 0.0 2.0 0.0 1.0 0.0 3.0 6.0 0.0 1.0 0.0 9.0 6.0 10.0 8.0 1.0 6.0 1.0 3.0 9.0 10.0 5.0 
6.0 6.0 7.0 2.0 8.0 0.0 5.0 3.0 5.0 6.0 2.0 0.0 2.0 1.0 8.0 7.0 5.0 9.0 7.0 9.0 2.0 9.0 10.0 7.0 2.0 2.0 1.0 4.0 9.0 4.0 0.0 9.0 5.0 4.0 9.0 8.0 10.0 3.0 8.0 5.0 9.0 8.0 8.0 2.0 10.0 3.0 6.0 6.0 2.0 9.0 6.0 9.0 0.0 -436.0 2.0 4.0 1.0 0.0 4.0 2.0 7.0 7.0 2.0 10.0 7.0 2.0 10.0 6.0 1.0 5.0 1.0 6.0 2.0 6.0 5.0 2.0 9.0 5.0 7.0 6.0 5.0 8.0 0.0 8.0 5.0 4.0 
4.0 8.0 3.0 6.0 1.0 4.0 7.0 4.0 2.0 6.0 5.0 0.0 0.0 3.0 0.0 10.0 0.0 5.0 9.0 5.0 5.0 0.0 4.0 3.0 7.0 5.0 3.0 1.0 10.0 10.0 1.0 10.0 3.0 9.0 4.0 5.0 8.0 2.0 9.0 1.0 10.0 6.0 2.0 6.0 3.0 1.0 7.0 10.0 9.0 1.0 0.0 8.0 10.0 2.0 -415.0 9.0 3.0 2.0 10.0 8.0 8.0 4.0 1.0 2.0 6.0 1.0 4.0 10.0 0.0 0.0 6.0 5.0 4.0 4.0 5.0 8.0 10.0 8.0 9.0 6.0 2.0 6.0 4.0 9.0 4.0 0.0 
6.0 2.0 10.0 7.0 4.0 10.0 9.0 3.0 7.0 0.0 10.0 7.0 1.0 2.0 4.0 8.0 5.0 9.0 5.0 6.0 5.0 6.0 3.0 3.0 4.0 4.0 9.0 8.0 7.0 6.0 1.0 5.0 10.0 7.0 0.0 0.0 9.0 0.0 3.0 3.0 4.0 1.0 4.0 9.0 7.0 1.0 7.0 6.0 10.0 9.0 10.0 1.0 6.0 4.0 9.0 -435.0 7.0 5.0 5.0 4.0 5.0 6.0 2.0 6.0 8.0 10.0 7.0 3.0 2.0 0.0 0.0 3.0 4.0 9.0 1.0 7.0 4.0 1.0 10.0 4.0 0.0 4.0 8.0 10.0 0.0 4.0 
2.0 7.0 4.0 8.0 10.0 4.0 3.0 3.0 9.0 4.0 4.0 9.0 5.0 3.0 4.0 9.0 9.0 0.0 2.0 2.0 0.0 7.0 0.0 10.0 2.0 8.0 6.0 4.0 10.0 7.0 6.0 4.0 0.0 4.0 8.0 8.0 4.0 1.0 2.0 7.0 3.0 1.0 6.0 4.0 6.0 1.0 10.0 10.0 0.0 3.0 2.0 1.0 8.0 1.0 3.0 7.0 -430.0 10.0 8.0 8.0 4.0 10.0 0.0 10.0 10.0 3.0 4.0 9.0 7.0 3.0 10.0 4.0 7.0 10.0 6.0 0.0 0.0 6.0 2.0 9.0 6.0 4.0 9.0 3.0 1.0 2.0 
7.0 6.0 8.0 10.0 4.0 5.0 4.0 6.0 3.0 8.0 0.0 3.0 7.0 8.0 6.0 3.0 7.0 7.0 8.0 5.0 0.0 1.0 10.0 5.0 4.0 5.0 9.0 6.0 9.0 10.0 2.0 4.0 10.0 7.0 4.0 8.0 10.0 1.0 6.0 3.0 1.0 6.0 1.0 6.0 10.0 4.0 6.0 2.0 5.0 6.0 2.0 8.0 2.0 0.0 2.0 5.0 10.0 -474.0 4.0 1.0 10.0 2.0 5.0 6.0 1.0 9.0 9.0 9.0 7.0 9.0 9.0 9.0 8.0 3.0 9.0 1.0 1.0 3.0 7.0 6.0 8.0 10.0 10.0 4.0 7.0 2.0 
1.0 2.0 3.0 0.0 2.0 0.0 6.0 10.0 0.0 3.0 5.0 2.0 6.0 5.0 5.0 6.0 2.0 5.0 0.0 4.0 8.0 1.0 5.0 3.0 1.0 5.0 5.0 8.0 9.0 5.0 2.0 4.0 5.0 5.0 0.0 0.0 3.0 10.0 5.0 1.0 7.0 0.0 6.0 7.0 3.0 10.0 0.0 2.0 1.0 4.0 7.0 5.0 1.0 4.0 10.0 5.0 8.0 4.0 -364.0 10.0 1.0 5.0 9.0 9.0 5.0 10.0 7.0 7.0 10.0 5.0 0.0 0.0 1.0 10.0 2.0 0.0 7.0 1.0 1.0 3.0 1.0 7.0 3.0 2.0 8.0 4.0 
9.0 4.0 4.0 10.0 3.0 10.0 2.0 8.0 8.0 6.0 10.0 3.0 1.0 8.0 2.0 5.0 0.0 6.0 7.0 0.0 8.0 1.0 0.0 8.0 2.0 10.0 7.0 6.0 8.0 6.0 8.0 1.0 9.0 0.0 6.0 10.0 1.0 6.0 8.0 10.0 10.0 7.0 10.0 8.0 0.0 1.0 10.0 8.0 8.0 0.0 9.0 6.0 9.0 2.0 8.0 4.0 8.0 1.0 10.0 -464.0 5.0 10.0 4.0 0.0 6.0 7.0 9.0 5.0 5.0 4.0 7.0 2.0 8.0 1.0 5.0 2.0 1.0 8.0 8.0 1.0 8.0 1.0 7.0 8.0 2.0 0.0 
4.0 4.0 4.0 4.0 4.0 9.0 1.0 0.0 7.0 2.0 7.0 2.0 4.0 10.0 10.0 9.0 6.0 2.0 2.0 4.0 1.0 7.0 9.0 9.0 9.0 8.0 0.0 6.0 7.0 7.0 5.0 3.0 9.0 8.0 5.0 2.0 1.0 10.0 9.0 0.0 0.0 8.0 6.0 0.0 9.0 6.0 9.0 4.0 7.0 0.0 6.0 8.0 10.0 7.0 8.0 5.0 4.0 10.0 1.0 5.0 -458.0 10.0 0.0 7.0 3.0 7.0 1.0 3.0 6.0 9.0 6.0 0.0 1.0 9.0 8.0 6.0 3.0 8.0 3.0 6.0 9.0 8.0 4.0 4.0 9.0 5.0 
9.0 3.0 5.0 3.0 2.0 6.0 0.0 0.0 8.0 9.0 9.0 9.0 10.0 10.0 4.0 3.0 7.0 0.0 9.0 9.0 9.0 2.0 3.0 6.0 2.0 4.0 0.0 0.0 9.0 6.0 4.0 1.0 4.0 9.0 6.0 0.0 1.0 5.0 10.0 7.0 5.0 4.0 9.0 7.0 7.0 6.0 9.0 1.0 3.0 8.0 2.0 7.0 9.0 7.0 4.0 6.0 10.0 2.0 5.0 10.0 10.0 -473.0 7.0 5.0 9.0 6.0 1.0 10.0 5.0 5.0 8.0 10.0 9.0 9.0 0.0 7.0 3.0 0.0 3.0 0.0 7.0 10.0 5.0 9.0 5.0 6.0 
8.0 5.0 10.0 1.0 0.0 2.0 10.0 8.0 3.0 5.0 0.0 8.0 0.0 6.0 1.0 1.0 10.0 1.0 4.0 5.0 10.0 6.0 7.0 1.0 7.0 2.0 9.0 7.0 8.0 10.0 0.0 6.0 3.0 9.0 0.0 2.0 6.0 7.0 10.0 3.0 4.0 7.0 3.0 4.0 9.0 6.0 9.0 6.0 10.0 2.0 5.0 9.0 2.0 2.0 1.0 2.0 0.0 5.0 9.0 4.0 0.0 7.0 -448.0 9.0 10.0 1.0 8.0 10.0 7.0 9.0 7.0 8.0 4.0 0.0 4.0 6.0 7.0 8.0 7.0 2.0 9.0 3.0 9.0 7.0 0.0 6.0 
7.0 5.0 3.0 6.0 0.0 6.0 5.0 9.0 5.0 3.0 9.0 10.0 8.0 5.0 0.0 6.0 2.0 1.0 8.0 5.0 4.0 8.0 4.0 1.0 0.0 6.0 9.0 9.0 10.0 8.0 1.0 5.0 1.0 8.0 10.0 1.0 4.0 10.0 1.0 2.0 2.0 5.0 3.0 5.0 1.0 7.0 9.0 7.0 8.0 6.0 8.0 3.0 2.0 10.0 2.0 6.0 10.0 6.0 9.0 0.0 7.0 5.0 9.0 -471.0 6.0 0.0 6.0 10.0 10.0 6.0 4.0 1.0 6.0 10.0 2.0 0.0 6.0 7.0 10.0 7.0 10.0 10.0 6.0 8.0 1.0 10.0 
3.0 3.0 9.0 5.0 5.0 9.0 7.0 6.0 5.0 0.0 2.0 3.0 9.0 8.0 3.0 2.0 5.0 4.0 6.0 8.0 10.0 9.0 6.0 0.0 9.0 1.0 7.0 6.0 5.0 3.0 9.0 5.0 7.0 0.0 8.0 3.0 7.0 5.0 4.0 7.0 5.0 0.0 7.0 10.0 7.0 0.0 6.0 4.0 7.0 2.0 5.0 9.0 10.0 7.0 6.0 8.0 10.0 1.0 5.0 6.0 3.0 9.0 10.0 6.0 -486.0 0.0 10.0 10.0 8.0 9.0 7.0 7.0 9.0 3.0 8.0 1.0 9.0 4.0 10.0 6.0 0.0 5.0 4.0 0.0 10.0 10.0 
5.0 2.0 3.0 2.0 10.0 0.0 1.0 1.0 2.0 0.0 6.0 0.0 5.0 1.0 4.0 9.0 2.0 0.0 5.0 4.0 4.0 1.0 0.0 9.0 3.0 9.0 1.0 1.0 5.0 10.0 6.0 1.0 5.0 0.0 10.0 5.0 6.0 5.0 2.0 1.0 0.0 3.0 5.0 6.0 7.0 3.0 5.0 3.0 0.0 7.0 1.0 5.0 0.0 2.0 1.0 10.0 3.0 9.0 10.0 7.0 7.0 6.0 1.0 0.0 0.0 -324.0 0.0 5.0 0.0 5.0 5.0 1.0 4.0 8.0 2.0 2.0 1.0 6.0 4.0 6.0 4.0 3.0 10.0 1.0 9.0 1.0 
9.0 3.0 8.0 2.0 0.0 8.0 8.0 0.0 9.0 9.0 0.0 1.0 3.0 10.0 3.0 2.0 10.0 9.0 8.0 1.0 10.0 5.0 10.0 4.0 2.0 2.0 0.0 10.0 4.0 4.0 10.0 0.0 5.0 10.0 8.0 10.0 7.0 1.0 2.0 7.0 7.0 4.0 6.0 5.0 7.0 5.0 2.0 9.0 6.0 4.0 4.0 5.0 2.0 10.0 4.0 7.0 4.0 9.0 7.0 9.0 1.0 1.0 8.0 6.0 10.0 0.0 -464.0 4.0 3.0 4.0 9.0 0.0 9.0 8.0 8.0 10.0 10.0 4.0 0.0 5.0 10.0 1.0 7.0 4.0 2.0 10.0 
6.0 9.0 7.0 0.0 4.0 6.0 1.0 7.0 4.0 1.0 4.0 1.0 10.0 9.0 0.0 8.0 7.0 8.0 5.0 3.0 9.0 0.0 5.0 1.0 10.0 10.0 3.0 2.0 5.0 6.0 0.0 6.0 10.0 8.0 7.0 7.0 9.0 5.0 7.0 5.0 1.0 4.0 3.0 9.0 0.0 5.0 7.0 8.0 0.0 8.0 5.0 8.0 0.0 6.0 10.0 3.0 9.0 9.0 7.0 5.0 3.0 10.0 10.0 10.0 10.0 5.0 4.0 -462.0 8.0 10.0 0.0 7.0 10.0 7.0 7.0 3.0 2.0 0.0 5.0 9.0 4.0 10.0 5.0 1.0 0.0 0.0 
5.0 5.0 7.0 2.0 7.0 7.0 1.0 6.0 6.0 0.0 2.0 9.0 0.0 5.0 10.0 9.0 6.0 8.0 10.0 10.0 9.0 3.0 2.0 3.0 9.0 0.0 1.0 6.0 4.0 3.0 8.0 10.0 8.0 2.0 8.0 10.0 9.0 1.0 8.0 5.0 10.0 9.0 6.0 3.0 0.0 4.0 5.0 7.0 0.0 7.0 10.0 2.0 1.0 1.0 0.0 2.0 7.0 7.0 10.0 5.0 6.0 5.0 7.0 10.0 8.0 0.0 3.0 8.0 -461.0 5.0 4.0 10.0 0.0 7.0 1.0 1.0 7.0 8.0 10.0 1.0 4.0 6.0 8.0 8.0 9.0 5.0 
5.0 4.0 3.0 9.0 9.0 10.0 4.0 7.0 3.0 4.0 0.0 10.0 9.0 1.0 6.0 8.0 1.0 8.0 10.0 1.0 3.0 7.0 7.0 3.0 3.0 9.0 9.0 0.0 7.0 6.0 9.0 1.0 1.0 5.0 2.0 1.0 9.0 0.0 4.0 10.0 5.0 2.0 9.0 1.0 3.0 7.0 9.0 8.0 4.0 6.0 5.0 9.0 0.0 5.0 0.0 0.0 3.0 9.0 5.0 4.0 9.0 5.0 9.0 6.0 9.0 5.0 4.0 10.0 5.0 -443.0 0.0 2.0 8.0 8.0 5.0 9.0 1.0 4.0 2.0 9.0 6.0 8.0 2.0 9.0 0.0 6.0 
8.0 7.0 4.0 6.0 6.0 7.0 4.0 9.0 5.0 2.0 8.0 3.0 0.0 7.0 10.0 9.0 7.0 7.0 6.0 2.0 1.0 10.0 9.0 8.0 4.0 1.0 1.0 2.0 6.0 1.0 1.0 6.0 3.0 5.0 9.0 4.0 1.0 1.0 8.0 4.0 3.0 4.0 3.0 7.0 5.0 10.0 9.0 6.0 3.0 3.0 7.0 2.0 3.0 1.0 6.0 0.0 10.0 9.0 0.0 7.0 6.0 8.0 7.0 4.0 7.0 5.0 9.0 0.0 4.0 0.0 -429.0 1.0 5.0 7.0 1.0 6.0 8.0 0.0 5.0 9.0 5.0 10.0 9.0 6.0 6.0 1.0 
7.0 10.0 4.0 9.0 7.0 4.0 5.0 2.0 1.0 4.0 2.0 0.0 4.0 10.0 9.0 7.0 7.0 2.0 6.0 5.0 5.0 7.0 7.0 1.0 2.0 8.0 4.0 10.0 0.0 6.0 8.0 8.0 5.0 5.0 4.0 0.0 9.0 1.0 9.0 9.0 5.0 4.0 6.0 3.0 2.0 2.0 8.0 2.0 4.0 8.0 4.0 1.0 6.0 6.0 5.0 3.0 4.0 9.0 0.0 2.0 0.0 10.0 8.0 1.0 7.0 1.0 0.0 7.0 10.0 2.0 1.0 -419.0 3.0 3.0 4.0 0.0 10.0 8.0 7.0 10.0 3.0 1.0 5.0 8.0 6.0 7.0 
1.0 7.0 9.0 10.0 6.0 9.0 10.0 9.0 8.0 0.0 5.0 6.0 1.0 3.0 1.0 10.0 7.0 10.0 5.0 9.0 0.0 0.0 0.0 1.0 2.0 8.0 9.0 0.0 1.0 10.0 1.0 5.0 8.0 3.0 0.0 7.0 1.0 9.0 9.0 8.0 9.0 10.0 2.0 9.0 10.0 6.0 5.0 2.0 8.0 0.0 6.0 2.0 0.0 2.0 4.0 4.0 7.0 8.0 1.0 8.0 1.0 9.0 4.0 6.0 9.0 4.0 9.0 10.0 0.0 8.0 5.0 3.0 -448.0 8.0 3.0 5.0 4.0 7.0 2.0 10.0 5.0 9.0 8.0 1.0 5.0 2.0 
1.0 7.0 0.0 1.0 3.0 8.0 10.0 5.0 3.0 0.0 0.0 1.0 3.0 8.0 6.0 3.0 3.0 5.0 0.0 5.0 9.0 1.0 1.0 7.0 7.0 1.0 1.0 8.0 7.0 3.0 4.0 6.0 6.0 7.0 9.0 6.0 6.0 5.0 0.0 10.0 4.0 10.0 2.0 6.0 1.0 1.0 1.0 5.0 4.0 6.0 2.0 6.0 1.0 6.0 4.0 9.0 10.0 3.0 10.0 1.0 9.0 9.0 0.0 10.0 3.0 8.0 8.0 7.0 7.0 8.0 7.0 3.0 8.0 -414.0 0.0 0.0 2.0 1.0 10.0 3.0 8.0 5.0 9.0 7.0 9.0 5.0 
1.0 3.0 10.0 6.0 5.0 2.0 2.0 7.0 1.0 9.0 0.0 10.0 7.0 3.0 10.0 7.0 6.0 7.0 2.0 2.0 3.0 5.0 1.0 2.0 5.0 3.0 5.0 5.0 8.0 0.0 0.0 10.0 10.0 10.0 8.0 8.0 2.0 10.0 3.0 1.0 6.0 0.0 2.0 8.0 0.0 9.0 5.0 3.0 4.0 1.0 3.0 2.0 0.0 5.0 5.0 1.0 6.0 9.0 2.0 5.0 8.0 0.0 4.0 2.0 8.0 2.0 8.0 7.0 1.0 5.0 1.0 4.0 3.0 0.0 -395.0 8.0 9.0 5.0 10.0 9.0 8.0 1.0 1.0 10.0 2.0 4.0 
0.0 3.0 9.0 8.0 3.0 6.0 4.0 4.0 4.0 0.0 7.0 7.0 9.0 10.0 0.0 7.0 1.0 7.0 2.0 1.0 1.0 5.0 0.0 4.0 10.0 5.0 8.0 4.0 7.0 9.0 5.0 3.0 6.0 2.0 9.0 9.0 3.0 7.0 8.0 8.0 10.0 0.0 3.0 0.0 10.0 6.0 6.0 7.0 7.0 1.0 10.0 7.0 9.0 2.0 8.0 7.0 0.0 1.0 0.0 2.0 6.0 7.0 6.0 0.0 1.0 2.0 10.0 3.0 1.0 9.0 6.0 0.0 5.0 0.0 8.0 -417.0 1.0 9.0 9.0 7.0 4.0 10.0 7.0 0.0 3.0 2.0 
10.0 4.0 3.0 0.0 0.0 8.0 2.0 2.0 6.0 5.0 0.0 0.0 10.0 2.0 5.0 4.0 10.0 8.0 6.0 10.0 1.0 7.0 1.0 8.0 4.0 7.0 4.0 5.0 0.0 3.0 1.0 8.0 4.0 6.0 4.0 3.0 7.0 5.0 6.0 2.0 3.0 9.0 8.0 9.0 5.0 10.0 10.0 7.0 4.0 2.0 1.0 2.0 6.0 9.0 10.0 4.0 0.0 1.0 7.0 1.0 3.0 3.0 7.0 6.0 9.0 1.0 10.0 2.0 7.0 1.0 8.0 10.0 4.0 2.0 9.0 1.0 -410.0 6.0 6.0 3.0 1.0 4.0 0.0 8.0 2.0 8.0 
0.0 6.0 9.0 1.0 3.0 2.0 7.0 4.0 0.0 5.0 10.0 6.0 6.0 9.0 5.0 9.0 7.0 0.0 0.0 9.0 4.0 4.0 5.0 8.0 4.0 10.0 3.0 5.0 6.0 0.0 5.0 6.0 1.0 10.0 10.0 2.0 0.0 10.0 2.0 1.0 7.0 4.0 0.0 0.0 1.0 7.0 10.0 4.0 7.0 0.0 5.0 9.0 10.0 5.0 8.0 1.0 6.0 3.0 1.0 8.0 8.0 0.0 8.0 7.0 4.0 6.0 4.0 0.0 8.0 4.0 0.0 8.0 7.0 1.0 5.0 9.0 6.0 -393.0 1.0 4.0 0.0 1.0 8.0 1.0 1.0 2.0 
8.0 8.0 2.0 9.0 8.0 8.0 10.0 2.0 4.0 2.0 6.0 9.0 5.0 8.0 6.0 4.0 5.0 7.0 0.0 3.0 0.0 3.0 3.0 7.0 4.0 5.0 1.0 8.0 5.0 2.0 7.0 1.0 1.0 0.0 9.0 3.0 1.0 3.0 3.0 1.0 3.0 1.0 2.0 7.0 1.0 6.0 1.0 0.0 0.0 6.0 9.0 7.0 8.0 7.0 9.0 10.0 2.0 7.0 1.0 8.0 3.0 3.0 7.0 10.0 10.0 4.0 0.0 5.0 10.0 2.0 5.0 7.0 2.0 10.0 10.0 9.0 6.0 1.0 -424.0 6.0 7.0 2.0 8.0 8.0 7.0 6.0 
10.0 0.0 1.0 7.0 3.0 1.0 1.0 3.0 6.0 6.0 2.0 7.0 8.0 6.0 6.0 7.0 9.0 6.0 0.0 0.0 2.0 1.0 4.0 0.0 6.0 10.0 5.0 7.0 1.0 6.0 0.0 9.0 3.0 0.0 4.0 1.0 10.0 3.0 4.0 10.0 9.0 3.0 2.0 9.0 5.0 3.0 0.0 6.0 1.0 9.0 0.0 7.0 1.0 6.0 6.0 4.0 9.0 6.0 3.0 1.0 6.0 0.0 2.0 7.0 6.0 6.0 5.0 9.0 1.0 9.0 9.0 10.0 10.0 3.0 9.0 7.0 3.0 4.0 6.0 -406.0 5.0 2.0 7.0 5.0 0.0 10.0 
7.0 0.0 10.0 5.0 0.0 6.0 5.0 7.0 0.0 2.0 4.0 7.0 2.0 10.0 4.0 4.0 6.0 8.0 9.0 7.0 6.0 4.0 3.0 8.0 6.0 3.0 5.0 7.0 7.0 7.0 5.0 0.0 10.0 3.0 1.0 2.0 4.0 5.0 8.0 10.0 4.0 9.0 5.0 6.0 9.0 7.0 0.0 9.0 10.0 1.0 9.0 0.0 6.0 5.0 2.0 0.0 6.0 8.0 1.0 8.0 9.0 7.0 9.0 10.0 0.0 4.0 10.0 4.0 4.0 6.0 5.0 3.0 5.0 8.0 8.0 4.0 1.0 0.0 7.0 5.0 -442.0 9.0 2.0 5.0 5.0 0.0 
8.0 0.0 6.0 6.0 3.0 6.0 10.0 8.0 8.0 7.0 1.0 7.0 10.0 6.0 4.0 2.0 4.0 0.0 6.0 4.0 5.0 0.0 4.0 9.0 0.0 6.0 7.0 6.0 3.0 10.0 7.0 3.0 3.0 5.0 6.0 10.0 6.0 8.0 4.0 2.0 9.0 0.0 1.0 2.0 3.0 3.0 2.0 10.0 9.0 2.0 3.0 3.0 1.0 8.0 6.0 4.0 4.0 10.0 7.0 1.0 8.0 10.0 3.0 10.0 5.0 3.0 1.0 10.0 6.0 8.0 10.0 1.0 9.0 5.0 1.0 10.0 4.0 1.0 2.0 2.0 9.0 -445.0 7.0 10.0 5.0 7.0 
7.0 0.0 7.0 0.0 7.0 0.0 2.0 10.0 8.0 1.0 5.0 10.0 0.0 3.0 2.0 3.0 5.0 7.0 10.0 10.0 8.0 2.0 1.0 0.0 8.0 3.0 3.0 3.0 8.0 7.0 5.0 10.0 10.0 10.0 0.0 6.0 1.0 1.0 9.0 0.0 9.0 2.0 7.0 1.0 0.0 0.0 3.0 10.0 0.0 8.0 0.0 7.0 3.0 0.0 4.0 8.0 9.0 10.0 3.0 7.0 4.0 5.0 9.0 6.0 4.0 10.0 7.0 5.0 8.0 2.0 9.0 5.0 8.0 9.0 1.0 7.0 0.0 8.0 8.0 7.0 2.0 7.0 -425.0 5.0 4.0 2.0 
4.0 0.0 4.0 3.0 6.0 0.0 6.0 8.0 1.0 5.0 8.0 6.0 8.0 0.0 4.0 9.0 10.0 0.0 8.0 10.0 10.0 4.0 5.0 3.0 7.0 7.0 10.0 2.0 6.0 0.0 1.0 3.0 5.0 2.0 2.0 4.0 8.0 1.0 8.0 0.0 6.0 6.0 1.0 3.0 10.0 10.0 6.0 6.0 5.0 5.0 8.0 6.0 9.0 8.0 9.0 10.0 3.0 4.0 2.0 8.0 4.0 9.0 7.0 8.0 0.0 1.0 4.0 1.0 8.0 9.0 6.0 8.0 1.0 7.0 10.0 0.0 8.0 1.0 8.0 5.0 5.0 10.0 5.0 -448.0 6.0 4.0 
0.0 0.0 7.0 0.0 8.0 9.0 6.0 10.0 5.0 3.0 10.0 7.0 5.0 6.0 9.0 4.0 6.0 4.0 1.0 1.0 1.0 6.0 4.0 10.0 1.0 3.0 5.0 5.0 8.0 9.0 10.0 1.0 9.0 1.0 6.0 9.0 2.0 9.0 6.0 9.0 0.0 4.0 1.0 3.0 2.0 7.0 10.0 3.0 0.0 8.0 6.0 2.0 10.0 5.0 4.0 0.0 1.0 7.0 8.0 2.0 9.0 5.0 0.0 1.0 10.0 9.0 2.0 0.0 9.0 0.0 6.0 6.0 5.0 9.0 2.0 3.0 2.0 1.0 7.0 0.0 5.0 5.0 4.0 6.0 -413.0 9.0 
0.0 0.0 10.0 4.0 4.0 5.0 8.0 6.0 3.0 7.0 9.0 0.0 6.0 5.0 5.0 8.0 7.0 6.0 8.0 4.0 0.0 10.0 8.0 6.0 7.0 0.0 10.0 5.0 5.0 0.0 7.0 4.0 7.0 9.0 3.0 6.0 5.0 6.0 1.0 0.0 2.0 0.0 1.0 6.0 1.0 6.0 9.0 7.0 8.0 4.0 5.0 9.0 5.0 4.0 0.0 4.0 2.0 2.0 4.0 0.0 5.0 6.0 6.0 10.0 10.0 1.0 10.0 0.0 5.0 6.0 1.0 7.0 2.0 5.0 4.0 2.0 8.0 2.0 6.0 10.0 0.0 7.0 2.0 4.0 9.0 -411.0 

